(set-info :smt-lib-version 2.6)
(set-logic QF_S)
(set-info :source |
Generated by: Hung-En Wang, Tzung-Lin Tsai, Chun-Han Lin, Fang Yu, and Jie-Hong R. Jiang
Generated on: 2019-02-28
Generator: Stranger
Application: Security analysis of string manipulating web applications
Target solver: CVC4, Norn, Z3-str2
Publication:
Hung-En Wang, Tzung-Lin Tsai, Chun-Han Lin, Fang Yu, Jie-Hong R. Jiang:
String Analysis via Automata Manipulation with Logic Circuit Representation. CAV (1) 2016: 241-260.
|)
(set-info :license "https://creativecommons.org/licenses/by/4.0/")
(set-info :category "industrial")
(set-info :status unknown)

(declare-fun sigmaStar_0 () String)
(declare-fun sigmaStar_1 () String)
(declare-fun sigmaStar_2 () String)
(declare-fun x_44 () String)
(declare-fun literal_6 () String)
(declare-fun literal_4 () String)
(declare-fun literal_5 () String)
(declare-fun literal_45 () String)
(declare-fun x_46 () String)
(declare-fun sigmaStar_47 () String)
(declare-fun literal_57 () String)
(declare-fun x_58 () String)
(declare-fun epsilon () String)
(declare-fun literal_56 () String)
(declare-fun x_59 () String)
(declare-fun literal_60 () String)
(declare-fun x_61 () String)
(assert (= literal_6 "\u{2f}"))
(assert (= literal_4 "\u{77}\u{64}\u{69}\u{72}"))
(assert (= literal_5 "\u{2f}"))
(assert (or (= x_44 literal_6) (= x_44 literal_4) (= x_44 literal_5)))
(assert (= literal_45 "\u{2f}"))
(assert (= x_46 (str.++ x_44 literal_45)))
(assert (= literal_57 "\u{20}\u{69}\u{73}\u{69}\u{7a}\u{65}\u{3a}\u{20}\u{27}\u{27}\u{2c}\u{20}\u{69}\u{74}\u{79}\u{70}\u{65}\u{3a}\u{20}\u{27}\u{74}\u{79}\u{70}\u{65}\u{27}\u{2c}\u{20}\u{69}\u{77}\u{69}\u{64}\u{74}\u{68}\u{3a}\u{20}\u{27}"))
(assert (= epsilon ""))
(assert (= literal_56 "\u{55}\u{6e}\u{6b}\u{6e}\u{6f}\u{77}\u{6e}"))
(assert (or (= x_58 epsilon) (= x_58 literal_56)))
(assert (= x_59 (str.++ literal_57 x_58)))
(assert (= literal_60 "\u{27}\u{2c}"))
(assert (= x_61 (str.++ x_59 literal_60)))
(assert (str.in_re x_61 (re.++ (re.* re.allchar) (re.++ (str.to_re "\u{5c}\u{3c}\u{53}\u{43}\u{52}\u{49}\u{50}\u{54}") (re.* re.allchar)))))
(check-sat)
(exit)
